0 14736 
1 14688 
2 14578 
3 14568 
4 14546 
5 14494 
6 14444 
7 14288 
8 14266 
9 14214 
10 14208 
11 14186 
12 14076 
13 13944 
14 13922 
15 13872 
16 13860 
17 13744 
18 13736 
19 13412 
20 13384 
21 13138 
22 13096 
23 13034 
24 12990 
25 12764 
26 12716 
27 12650 
28 12582 
29 12556 
30 12444 
31 12364 
32 12036 
33 12024 
34 11966 
35 11958 
36 11894 
37 11846 
38 11568 
39 11386 
40 11336 
41 11292 
42 11146 
43 11102 
44 11084 
45 11024 
46 11000 
47 10998 
48 10934 
49 10852 
50 10778 
51 10734 
52 10592 
53 10494 
54 10378 
55 10370 
56 10290 
57 10044 
58 10024 
59 9854 
60 9438 
61 9376 
62 9244 
63 9220 
64 9166 
65 9048 
66 8974 
67 8926 
68 8868 
69 8750 
70 8662 
71 8594 
72 8574 
73 8246 
74 8216 
75 8200 
76 8170 
77 8154 
78 8150 
79 7894 
80 7866 
81 7726 
82 7702 
83 7644 
84 7586 
85 7520 
86 7486 
87 7452 
88 7372 
89 7354 
90 7352 
91 7346 
92 7222 
93 7126 
94 7120 
95 7026 
96 7022 
97 7006 
98 6950 
99 6922 
100 6900 
101 6828 
102 6820 
103 6756 
104 6718 
105 6718 
106 6718 
107 6718 
108 6718 
109 6718 
110 6718 
111 6718 
112 6718 
113 6718 
114 6718 
115 6718 
116 6718 
117 6718 
118 6718 
119 6718 
120 6718 
121 6718 
122 6718 
123 6718 
124 6718 
125 6718 
126 6718 
127 6718 
128 6718 
129 6718 
130 6718 
131 6718 
132 6718 
133 6718 
134 6718 
135 6718 
136 6718 
137 6718 
138 6718 
139 6718 
140 6718 
141 6718 
142 6718 
143 6718 
144 6718 
145 6718 
146 6718 
147 6718 
148 6718 
149 6718 
150 6718 
151 6718 
152 6718 
153 6718 
154 6718 
155 6718 
156 6718 
157 6718 
158 6718 
159 6718 
160 6718 
161 6718 
162 6718 
163 6718 
164 6718 
165 6718 
166 6718 
167 6718 
168 6718 
169 6718 
170 6718 
171 6718 
172 6718 
173 6718 
174 6718 
175 6718 
176 6718 
177 6718 
178 6718 
179 6718 
180 6718 
181 6718 
182 6718 
183 6718 
184 6718 
185 6718 
186 6718 
187 6718 
188 6718 
189 6718 
190 6718 
191 6718 
192 6718 
193 6718 
194 6718 
195 6718 
196 6718 
197 6718 
198 6718 
199 6718 
200 6718 
201 6718 
202 6718 
203 6718 
204 6718 
205 6718 
206 6718 
207 6718 
208 6718 
209 6718 
210 6718 
211 6718 
212 6718 
213 6718 
214 6718 
215 6718 
216 6718 
217 6718 
218 6718 
219 6718 
220 6718 
221 6718 
222 6718 
223 6718 
224 6718 
225 6718 
226 6718 
227 6718 
228 6718 
229 6718 
230 6718 
231 6718 
232 6718 
233 6718 
234 6718 
235 6718 
236 6718 
237 6718 
238 6718 
239 6718 
240 6718 
241 6718 
242 6718 
243 6718 
244 6718 
245 6718 
246 6718 
247 6718 
248 6718 
249 6718 
250 6718 
251 6718 
252 6718 
253 6718 
254 6718 
255 6718 
256 6718 
257 6718 
258 6718 
259 6718 
260 6718 
261 6718 
262 6718 
263 6718 
264 6718 
265 6718 
266 6718 
267 6718 
268 6718 
269 6718 
270 6718 
271 6718 
272 6718 
273 6718 
274 6718 
275 6718 
276 6718 
277 6718 
278 6718 
279 6718 
280 6718 
281 6718 
282 6718 
283 6718 
284 6718 
285 6718 
286 6718 
287 6718 
288 6718 
289 6718 
290 6718 
291 6718 
292 6718 
293 6718 
294 6718 
295 6718 
296 6718 
297 6718 
298 6718 
299 6718 
300 6718 
301 6718 
302 6718 
303 6718 
304 6718 
305 6718 
306 6718 
307 6718 
308 6718 
309 6718 
310 6718 
311 6718 
312 6718 
313 6718 
314 6718 
315 6718 
316 6718 
317 6718 
318 6718 
319 6718 
320 6718 
321 6718 
322 6718 
323 6718 
324 6718 
325 6718 
326 6718 
327 6718 
328 6718 
329 6718 
330 6718 
331 6718 
332 6718 
333 6718 
334 6718 
335 6718 
336 6718 
337 6718 
338 6718 
339 6718 
340 6718 
341 6718 
342 6718 
343 6718 
344 6718 
345 6718 
346 6718 
347 6718 
348 6718 
349 6718 
350 6718 
351 6718 
352 6718 
353 6718 
354 6718 
355 6718 
356 6718 
357 6718 
358 6718 
359 6718 
360 6718 
361 6718 
362 6718 
363 6718 
364 6718 
365 6718 
366 6718 
367 6718 
368 6718 
369 6718 
370 6718 
371 6718 
372 6718 
373 6718 
374 6718 
375 6718 
376 6718 
377 6718 
378 6718 
379 6718 
380 6718 
381 6718 
382 6718 
383 6718 
384 6718 
385 6718 
386 6718 
387 6718 
388 6718 
389 6718 
390 6718 
391 6718 
392 6718 
393 6718 
394 6718 
395 6718 
396 6718 
397 6718 
398 6718 
399 6718 
400 6718 
401 6718 
402 6718 
403 6718 
404 6718 
405 6718 
406 6718 
407 6718 
408 6718 
409 6718 
410 6718 
411 6718 
412 6718 
413 6718 
414 6718 
415 6718 
416 6718 
417 6718 
418 6718 
419 6718 
420 6718 
421 6718 
422 6718 
423 6718 
424 6718 
425 6718 
426 6718 
427 6718 
428 6718 
429 6718 
430 6718 
431 6718 
432 6718 
433 6718 
434 6718 
435 6718 
436 6718 
437 6718 
438 6718 
439 6718 
440 6718 
441 6718 
442 6718 
443 6718 
444 6718 
445 6718 
446 6718 
447 6718 
448 6718 
449 6718 
450 6718 
451 6718 
452 6718 
453 6718 
454 6718 
455 6718 
456 6718 
457 6718 
458 6718 
459 6718 
460 6718 
461 6718 
462 6718 
463 6718 
464 6718 
465 6718 
466 6718 
467 6718 
468 6718 
469 6718 
470 6718 
471 6718 
472 6718 
473 6718 
474 6718 
475 6718 
476 6718 
477 6718 
478 6718 
479 6718 
480 6718 
481 6718 
482 6718 
483 6718 
484 6718 
485 6718 
486 6718 
487 6718 
488 6718 
489 6718 
490 6718 
491 6718 
492 6718 
493 6718 
494 6718 
495 6718 
496 6718 
497 6718 
498 6718 
499 6718 
500 6718 
501 6718 
502 6718 
503 6718 
504 6718 
505 6718 
506 6718 
507 6718 
508 6718 
509 6718 
510 6718 
511 6718 
512 6718 
513 6718 
514 6718 
515 6718 
516 6718 
517 6718 
518 6718 
519 6718 
520 6718 
521 6718 
522 6718 
523 6718 
524 6718 
525 6718 
526 6718 
527 6718 
528 6718 
529 6718 
530 6718 
531 6718 
532 6718 
533 6718 
534 6718 
535 6718 
536 6718 
537 6718 
538 6718 
539 6718 
540 6718 
541 6718 
542 6718 
543 6718 
544 6718 
545 6718 
546 6718 
547 6718 
548 6718 
549 6718 
550 6718 
551 6718 
552 6718 
553 6718 
554 6718 
555 6718 
556 6718 
557 6718 
558 6718 
559 6718 
560 6718 
561 6718 
562 6718 
563 6718 
564 6718 
565 6718 
566 6718 
567 6718 
568 6718 
569 6718 
570 6718 
571 6718 
572 6718 
573 6718 
574 6718 
575 6718 
576 6718 
577 6718 
578 6718 
579 6718 
580 6718 
581 6718 
582 6718 
583 6718 
584 6718 
585 6718 
586 6718 
587 6718 
588 6718 
589 6718 
590 6718 
591 6718 
592 6718 
593 6718 
594 6718 
595 6718 
596 6718 
597 6718 
598 6718 
599 6718 
600 6718 
601 6718 
602 6718 
603 6718 
604 6718 
605 6718 
606 6718 
607 6718 
608 6718 
609 6718 
610 6718 
611 6718 
612 6718 
613 6718 
614 6718 
615 6718 
616 6718 
617 6718 
618 6718 
619 6718 
620 6718 
621 6718 
622 6718 
623 6718 
624 6718 
625 6718 
626 6718 
627 6718 
628 6718 
629 6718 
630 6718 
631 6718 
632 6718 
633 6718 
634 6718 
635 6718 
636 6718 
637 6718 
638 6718 
639 6718 
640 6718 
641 6718 
642 6718 
643 6718 
644 6718 
645 6718 
646 6718 
647 6718 
648 6718 
649 6718 
650 6718 
651 6718 
652 6718 
653 6718 
654 6718 
655 6718 
656 6718 
657 6718 
658 6718 
659 6718 
660 6718 
661 6718 
662 6718 
663 6718 
664 6718 
665 6718 
666 6718 
667 6718 
668 6718 
669 6718 
670 6718 
671 6718 
672 6718 
673 6718 
674 6718 
675 6718 
676 6718 
677 6718 
678 6718 
679 6718 
680 6718 
681 6718 
682 6718 
683 6718 
684 6718 
685 6718 
686 6718 
687 6718 
688 6718 
689 6718 
690 6718 
691 6718 
692 6718 
693 6718 
694 6718 
695 6718 
696 6718 
697 6718 
698 6718 
699 6718 
700 6718 
701 6718 
702 6718 
703 6718 
704 6718 
705 6718 
706 6718 
707 6718 
708 6718 
709 6718 
710 6718 
711 6718 
712 6718 
713 6718 
714 6718 
715 6718 
716 6718 
717 6718 
718 6718 
719 6718 
720 6718 
721 6718 
722 6718 
723 6718 
724 6718 
725 6718 
726 6718 
727 6718 
728 6718 
729 6718 
730 6718 
731 6718 
732 6718 
733 6718 
734 6718 
735 6718 
736 6718 
737 6718 
738 6718 
739 6718 
740 6718 
741 6718 
742 6718 
743 6718 
744 6718 
745 6718 
746 6718 
747 6718 
748 6718 
749 6718 
750 6718 
751 6718 
752 6718 
753 6718 
754 6718 
755 6718 
756 6718 
757 6718 
758 6718 
759 6718 
760 6718 
761 6718 
762 6718 
763 6718 
764 6718 
765 6718 
766 6718 
767 6718 
768 6718 
769 6718 
770 6718 
771 6718 
772 6718 
773 6718 
774 6718 
775 6718 
776 6718 
777 6718 
778 6718 
779 6718 
780 6718 
781 6718 
782 6718 
783 6718 
784 6718 
785 6718 
786 6718 
787 6718 
788 6718 
789 6718 
790 6718 
791 6718 
792 6718 
793 6718 
794 6718 
795 6718 
796 6718 
797 6718 
798 6718 
799 6718 
800 6718 
801 6718 
802 6718 
803 6718 
804 6718 
805 6718 
806 6718 
807 6718 
808 6718 
809 6718 
810 6718 
811 6718 
812 6718 
813 6718 
814 6718 
815 6718 
816 6718 
817 6718 
818 6718 
819 6718 
820 6718 
821 6718 
822 6718 
823 6718 
824 6718 
825 6718 
826 6718 
827 6718 
828 6718 
829 6718 
830 6718 
831 6718 
832 6718 
833 6718 
834 6718 
835 6718 
836 6718 
837 6718 
838 6718 
839 6718 
840 6718 
841 6718 
842 6718 
843 6718 
844 6718 
845 6718 
846 6718 
847 6718 
848 6718 
849 6718 
850 6718 
851 6718 
852 6718 
853 6718 
854 6718 
855 6718 
856 6718 
857 6718 
858 6718 
859 6718 
860 6718 
861 6718 
862 6718 
863 6718 
864 6718 
865 6718 
866 6718 
867 6718 
868 6718 
869 6718 
870 6718 
871 6718 
872 6718 
873 6718 
874 6718 
875 6718 
876 6718 
877 6718 
878 6718 
879 6718 
880 6718 
881 6718 
882 6718 
883 6718 
884 6718 
885 6718 
886 6718 
887 6718 
888 6718 
889 6718 
890 6718 
891 6718 
892 6718 
893 6718 
894 6718 
895 6718 
896 6718 
897 6718 
898 6718 
899 6718 
900 6718 
901 6718 
902 6718 
903 6718 
904 6718 
905 6718 
906 6718 
907 6718 
908 6718 
909 6718 
910 6718 
911 6718 
912 6718 
913 6718 
914 6718 
915 6718 
916 6718 
917 6718 
918 6718 
919 6718 
920 6718 
921 6718 
922 6718 
923 6718 
924 6718 
925 6718 
926 6718 
927 6718 
928 6718 
929 6718 
930 6718 
931 6718 
932 6718 
933 6718 
934 6718 
935 6718 
936 6718 
937 6718 
938 6718 
939 6718 
940 6718 
941 6718 
942 6718 
943 6718 
944 6718 
945 6718 
946 6718 
947 6718 
948 6718 
949 6718 
950 6718 
951 6718 
952 6718 
953 6718 
954 6718 
955 6718 
956 6718 
957 6718 
958 6718 
959 6718 
960 6718 
961 6718 
962 6718 
963 6718 
964 6718 
965 6718 
966 6718 
967 6718 
968 6718 
969 6718 
970 6718 
971 6718 
972 6718 
973 6718 
974 6718 
975 6718 
976 6718 
977 6718 
978 6718 
979 6718 
980 6718 
981 6718 
982 6718 
983 6718 
984 6718 
985 6718 
986 6718 
987 6718 
988 6718 
989 6718 
990 6718 
991 6718 
992 6718 
993 6718 
994 6718 
995 6718 
996 6718 
997 6718 
998 6718 
999 6718 
1000 6718 
1001 6718 
1002 6718 
1003 6718 
1004 6718 
1005 6718 
1006 6718 
1007 6718 
1008 6718 
1009 6718 
1010 6718 
1011 6718 
1012 6718 
1013 6718 
1014 6718 
1015 6718 
1016 6718 
1017 6718 
1018 6718 
1019 6718 
1020 6718 
1021 6718 
1022 6718 
1023 6718 
1024 6718 
1025 6718 
1026 6718 
1027 6718 
1028 6718 
1029 6718 
1030 6718 
1031 6718 
1032 6718 
1033 6718 
1034 6718 
1035 6718 
1036 6718 
1037 6718 
1038 6718 
1039 6718 
1040 6718 
1041 6718 
1042 6718 
1043 6718 
1044 6718 
1045 6718 
1046 6718 
1047 6718 
1048 6718 
1049 6718 
1050 6718 
1051 6718 
1052 6718 
1053 6718 
1054 6718 
1055 6718 
1056 6718 
1057 6718 
1058 6718 
1059 6718 
1060 6718 
1061 6718 
1062 6718 
1063 6718 
1064 6718 
1065 6718 
1066 6718 
1067 6718 
1068 6718 
1069 6718 
1070 6718 
1071 6718 
1072 6718 
1073 6718 
1074 6718 
1075 6718 
1076 6718 
1077 6718 
1078 6718 
1079 6718 
1080 6718 
1081 6718 
1082 6718 
1083 6718 
1084 6718 
1085 6718 
1086 6718 
1087 6718 
1088 6718 
1089 6718 
1090 6718 
1091 6718 
1092 6718 
1093 6718 
1094 6718 
1095 6718 
1096 6718 
1097 6718 
1098 6718 
1099 6718 
1100 6718 
1101 6718 
1102 6718 
1103 6718 
1104 6718 
1105 6718 
1106 6718 
1107 6718 
1108 6718 
1109 6718 
1110 6718 
1111 6718 
1112 6718 
1113 6718 
1114 6718 
1115 6718 
1116 6718 
1117 6718 
1118 6718 
1119 6718 
1120 6718 
1121 6718 
1122 6718 
1123 6718 
1124 6718 
1125 6718 
1126 6718 
1127 6718 
1128 6718 
1129 6718 
1130 6718 
1131 6718 
1132 6718 
1133 6718 
1134 6718 
1135 6718 
1136 6718 
1137 6718 
1138 6718 
1139 6718 
1140 6718 
1141 6718 
1142 6718 
1143 6718 
1144 6718 
1145 6718 
1146 6718 
1147 6718 
1148 6718 
1149 6718 
1150 6718 
1151 6718 
1152 6718 
1153 6718 
1154 6718 
1155 6718 
1156 6718 
1157 6718 
1158 6718 
1159 6718 
1160 6718 
1161 6718 
1162 6718 
1163 6718 
1164 6718 
1165 6718 
1166 6718 
1167 6718 
1168 6718 
1169 6718 
1170 6718 
1171 6718 
1172 6718 
1173 6718 
1174 6718 
1175 6718 
1176 6718 
1177 6718 
1178 6718 
1179 6718 
1180 6718 
1181 6718 
1182 6718 
1183 6718 
1184 6718 
1185 6718 
1186 6718 
1187 6718 
1188 6718 
1189 6718 
1190 6718 
1191 6718 
1192 6718 
1193 6718 
1194 6718 
1195 6718 
1196 6718 
1197 6718 
1198 6718 
1199 6718 
1200 6718 
1201 6718 
1202 6718 
1203 6718 
1204 6718 
1205 6718 
1206 6718 
1207 6718 
1208 6718 
1209 6718 
1210 6718 
1211 6718 
1212 6718 
1213 6718 
1214 6718 
1215 6718 
1216 6718 
1217 6718 
1218 6718 
1219 6718 
1220 6718 
1221 6718 
1222 6718 
1223 6718 
1224 6718 
1225 6718 
1226 6718 
1227 6718 
1228 6718 
1229 6718 
1230 6718 
1231 6718 
1232 6718 
1233 6718 
1234 6718 
1235 6718 
1236 6718 
1237 6718 
1238 6718 
1239 6718 
1240 6718 
1241 6718 
1242 6718 
1243 6718 
1244 6718 
1245 6718 
1246 6718 
1247 6718 
1248 6718 
1249 6718 
1250 6718 
1251 6718 
1252 6718 
1253 6718 
1254 6718 
1255 6718 
1256 6718 
1257 6718 
1258 6718 
1259 6718 
1260 6718 
1261 6718 
1262 6718 
1263 6718 
1264 6718 
1265 6718 
1266 6718 
1267 6718 
1268 6718 
1269 6718 
1270 6718 
1271 6718 
1272 6718 
1273 6718 
1274 6718 
1275 6718 
1276 6718 
1277 6718 
1278 6718 
1279 6718 
1280 6718 
1281 6718 
1282 6718 
1283 6718 
1284 6718 
1285 6718 
1286 6718 
1287 6718 
1288 6718 
1289 6718 
1290 6718 
1291 6718 
1292 6718 
1293 6718 
1294 6718 
1295 6718 
1296 6718 
1297 6718 
1298 6718 
1299 6718 
1300 6718 
1301 6718 
1302 6718 
1303 6718 
1304 6718 
1305 6718 
1306 6718 
1307 6718 
1308 6718 
1309 6718 
1310 6718 
1311 6718 
1312 6718 
1313 6718 
1314 6718 
1315 6718 
1316 6718 
1317 6718 
1318 6718 
1319 6718 
1320 6718 
1321 6718 
1322 6718 
1323 6718 
1324 6718 
1325 6718 
1326 6718 
1327 6718 
1328 6718 
1329 6718 
1330 6718 
1331 6718 
1332 6718 
1333 6718 
1334 6718 
1335 6718 
1336 6718 
1337 6718 
1338 6718 
1339 6718 
1340 6718 
1341 6718 
1342 6718 
1343 6718 
1344 6718 
1345 6718 
1346 6718 
1347 6718 
1348 6718 
1349 6718 
1350 6718 
1351 6718 
1352 6718 
1353 6718 
1354 6718 
1355 6718 
1356 6718 
1357 6718 
1358 6718 
1359 6718 
1360 6718 
1361 6718 
1362 6718 
1363 6718 
1364 6718 
1365 6718 
1366 6718 
1367 6718 
1368 6718 
1369 6718 
1370 6718 
1371 6718 
1372 6718 
1373 6718 
1374 6718 
1375 6718 
1376 6718 
1377 6718 
1378 6718 
1379 6718 
1380 6718 
1381 6718 
1382 6718 
1383 6718 
1384 6718 
1385 6718 
1386 6718 
1387 6718 
1388 6718 
1389 6718 
1390 6718 
1391 6718 
1392 6718 
1393 6718 
1394 6718 
1395 6718 
1396 6718 
1397 6718 
1398 6718 
1399 6718 
1400 6718 
1401 6718 
1402 6718 
1403 6718 
1404 6718 
1405 6718 
1406 6718 
1407 6718 
1408 6718 
1409 6718 
1410 6718 
1411 6718 
1412 6718 
1413 6718 
1414 6718 
1415 6718 
1416 6718 
1417 6718 
1418 6718 
1419 6718 
1420 6718 
1421 6718 
1422 6718 
1423 6718 
1424 6718 
1425 6718 
1426 6718 
1427 6718 
1428 6718 
1429 6718 
1430 6718 
1431 6718 
1432 6718 
1433 6718 
1434 6718 
1435 6718 
1436 6718 
1437 6718 
1438 6718 
1439 6718 
1440 6718 
1441 6718 
1442 6718 
1443 6718 
1444 6718 
1445 6718 
1446 6718 
1447 6718 
1448 6718 
1449 6718 
1450 6718 
1451 6718 
1452 6718 
1453 6718 
1454 6718 
1455 6718 
1456 6718 
1457 6718 
1458 6718 
1459 6718 
1460 6718 
1461 6718 
1462 6718 
1463 6718 
1464 6718 
1465 6718 
1466 6718 
1467 6718 
1468 6718 
1469 6718 
1470 6718 
1471 6718 
1472 6718 
1473 6718 
1474 6718 
1475 6718 
1476 6718 
1477 6718 
1478 6718 
1479 6718 
1480 6718 
1481 6718 
1482 6718 
1483 6718 
1484 6718 
1485 6718 
1486 6718 
1487 6718 
1488 6718 
1489 6718 
1490 6718 
1491 6718 
1492 6718 
1493 6718 
1494 6718 
1495 6718 
1496 6718 
1497 6718 
1498 6718 
1499 6718 
1500 6718 
1501 6718 
1502 6718 
1503 6718 
1504 6718 
1505 6718 
1506 6718 
1507 6718 
1508 6718 
1509 6718 
1510 6718 
1511 6718 
1512 6718 
1513 6718 
1514 6718 
1515 6718 
1516 6718 
1517 6718 
1518 6718 
1519 6718 
1520 6718 
1521 6718 
1522 6718 
1523 6718 
1524 6718 
1525 6718 
1526 6718 
1527 6718 
1528 6718 
1529 6718 
1530 6718 
1531 6718 
1532 6718 
1533 6718 
1534 6718 
1535 6718 
1536 6718 
1537 6718 
1538 6718 
1539 6718 
1540 6718 
1541 6718 
1542 6718 
1543 6718 
1544 6718 
1545 6718 
1546 6718 
1547 6718 
1548 6718 
1549 6718 
1550 6718 
1551 6718 
1552 6718 
1553 6718 
1554 6718 
1555 6718 
1556 6718 
1557 6718 
1558 6718 
1559 6718 
1560 6718 
1561 6718 
1562 6718 
1563 6718 
1564 6718 
1565 6718 
1566 6718 
1567 6718 
1568 6718 
1569 6718 
1570 6718 
1571 6718 
1572 6718 
1573 6718 
1574 6718 
1575 6718 
1576 6718 
1577 6718 
1578 6718 
1579 6718 
1580 6718 
1581 6718 
1582 6718 
1583 6718 
1584 6718 
1585 6718 
1586 6718 
1587 6718 
1588 6718 
1589 6718 
1590 6718 
1591 6718 
1592 6718 
1593 6718 
1594 6718 
1595 6718 
1596 6718 
1597 6718 
1598 6718 
1599 6718 
1600 6718 
1601 6718 
1602 6718 
1603 6718 
1604 6718 
1605 6718 
1606 6718 
1607 6718 
1608 6718 
1609 6718 
1610 6718 
1611 6718 
1612 6718 
1613 6718 
1614 6718 
1615 6718 
1616 6718 
1617 6718 
1618 6718 
1619 6718 
1620 6718 
1621 6718 
1622 6718 
1623 6718 
1624 6718 
1625 6718 
1626 6718 
1627 6718 
1628 6718 
1629 6718 
1630 6718 
1631 6718 
1632 6718 
1633 6718 
1634 6718 
1635 6718 
1636 6718 
1637 6718 
1638 6718 
1639 6718 
1640 6718 
1641 6718 
1642 6718 
1643 6718 
1644 6718 
1645 6718 
1646 6718 
1647 6718 
1648 6718 
1649 6718 
1650 6718 
1651 6718 
1652 6718 
1653 6718 
1654 6718 
1655 6718 
1656 6718 
1657 6718 
1658 6718 
1659 6718 
1660 6718 
1661 6718 
1662 6718 
1663 6718 
1664 6718 
1665 6718 
1666 6718 
1667 6718 
1668 6718 
1669 6718 
1670 6718 
1671 6718 
1672 6718 
1673 6718 
1674 6718 
1675 6718 
1676 6718 
1677 6718 
1678 6718 
1679 6718 
1680 6718 
1681 6718 
1682 6718 
1683 6718 
1684 6718 
1685 6718 
1686 6718 
1687 6718 
1688 6718 
1689 6718 
1690 6718 
1691 6718 
1692 6718 
1693 6718 
1694 6718 
1695 6718 
1696 6718 
1697 6718 
1698 6718 
1699 6718 
1700 6718 
1701 6718 
1702 6718 
1703 6718 
1704 6718 
1705 6718 
1706 6718 
1707 6718 
1708 6718 
1709 6718 
1710 6718 
1711 6718 
1712 6718 
1713 6718 
1714 6718 
1715 6718 
1716 6718 
1717 6718 
1718 6718 
1719 6718 
1720 6718 
1721 6718 
1722 6718 
1723 6718 
1724 6718 
1725 6718 
1726 6718 
1727 6718 
1728 6718 
1729 6718 
1730 6718 
1731 6718 
1732 6718 
1733 6718 
1734 6718 
1735 6718 
1736 6718 
1737 6718 
1738 6718 
1739 6718 
1740 6718 
1741 6718 
1742 6718 
1743 6718 
1744 6718 
1745 6718 
1746 6718 
1747 6718 
1748 6718 
1749 6718 
1750 6718 
1751 6718 
1752 6718 
1753 6718 
1754 6718 
1755 6718 
1756 6718 
1757 6718 
1758 6718 
1759 6718 
1760 6718 
1761 6718 
1762 6718 
1763 6718 
1764 6718 
1765 6718 
1766 6718 
1767 6718 
1768 6718 
1769 6718 
1770 6718 
1771 6718 
1772 6718 
1773 6718 
1774 6718 
1775 6718 
1776 6718 
1777 6718 
1778 6718 
1779 6718 
1780 6718 
1781 6718 
1782 6718 
1783 6718 
1784 6718 
1785 6718 
1786 6718 
1787 6718 
1788 6718 
1789 6718 
1790 6718 
1791 6718 
1792 6718 
1793 6718 
1794 6718 
1795 6718 
1796 6718 
1797 6718 
1798 6718 
1799 6718 
1800 6718 
1801 6718 
1802 6718 
1803 6718 
1804 6718 
1805 6718 
1806 6718 
1807 6718 
1808 6718 
1809 6718 
1810 6718 
1811 6718 
1812 6718 
1813 6718 
1814 6718 
1815 6718 
1816 6718 
1817 6718 
1818 6718 
1819 6718 
1820 6718 
1821 6718 
1822 6718 
1823 6718 
1824 6718 
1825 6718 
1826 6718 
1827 6718 
1828 6718 
1829 6718 
1830 6718 
1831 6718 
1832 6718 
1833 6718 
1834 6718 
1835 6718 
1836 6718 
1837 6718 
1838 6718 
1839 6718 
1840 6718 
1841 6718 
1842 6718 
1843 6718 
1844 6718 
1845 6718 
1846 6718 
1847 6718 
1848 6718 
1849 6718 
1850 6718 
1851 6718 
1852 6718 
1853 6718 
1854 6718 
1855 6718 
1856 6718 
1857 6718 
1858 6718 
1859 6718 
1860 6718 
1861 6718 
1862 6718 
1863 6718 
1864 6718 
1865 6718 
1866 6718 
1867 6718 
1868 6718 
1869 6718 
1870 6718 
1871 6718 
1872 6718 
1873 6718 
1874 6718 
1875 6718 
1876 6718 
1877 6718 
1878 6718 
1879 6718 
1880 6718 
1881 6718 
1882 6718 
1883 6718 
1884 6718 
1885 6718 
1886 6718 
1887 6718 
1888 6718 
1889 6718 
1890 6718 
1891 6718 
1892 6718 
1893 6718 
1894 6718 
1895 6718 
1896 6718 
1897 6718 
1898 6718 
1899 6718 
1900 6718 
1901 6718 
1902 6718 
1903 6718 
1904 6718 
1905 6718 
1906 6718 
1907 6718 
1908 6718 
1909 6718 
1910 6718 
1911 6718 
1912 6718 
1913 6718 
1914 6718 
1915 6718 
1916 6718 
1917 6718 
1918 6718 
1919 6718 
1920 6718 
1921 6718 
1922 6718 
1923 6718 
1924 6718 
1925 6718 
1926 6718 
1927 6718 
1928 6718 
1929 6718 
1930 6718 
1931 6718 
1932 6718 
1933 6718 
1934 6718 
1935 6718 
1936 6718 
1937 6718 
1938 6718 
1939 6718 
1940 6718 
1941 6718 
1942 6718 
1943 6718 
1944 6718 
1945 6718 
1946 6718 
1947 6718 
1948 6718 
1949 6718 
1950 6718 
1951 6718 
1952 6718 
1953 6718 
1954 6718 
1955 6718 
1956 6718 
1957 6718 
1958 6718 
1959 6718 
1960 6718 
1961 6718 
1962 6718 
1963 6718 
1964 6718 
1965 6718 
1966 6718 
1967 6718 
1968 6718 
1969 6718 
1970 6718 
1971 6718 
1972 6718 
1973 6718 
1974 6718 
1975 6718 
1976 6718 
1977 6718 
1978 6718 
1979 6718 
1980 6718 
1981 6718 
1982 6718 
1983 6718 
1984 6718 
1985 6718 
1986 6718 
1987 6718 
1988 6718 
1989 6718 
1990 6718 
1991 6718 
1992 6718 
1993 6718 
1994 6718 
1995 6718 
1996 6718 
1997 6718 
1998 6718 
1999 6718 
2000 6718 
2001 6718 
2002 6718 
2003 6718 
2004 6718 
2005 6718 
2006 6718 
2007 6718 
2008 6718 
2009 6718 
2010 6718 
2011 6718 
2012 6718 
2013 6718 
2014 6718 
2015 6718 
2016 6718 
2017 6718 
2018 6718 
2019 6718 
2020 6718 
2021 6718 
2022 6718 
2023 6718 
2024 6718 
2025 6718 
2026 6718 
2027 6718 
2028 6718 
2029 6718 
2030 6718 
2031 6718 
2032 6718 
2033 6718 
2034 6718 
2035 6718 
2036 6718 
2037 6718 
2038 6718 
2039 6718 
2040 6718 
2041 6718 
2042 6718 
2043 6718 
2044 6718 
2045 6718 
2046 6718 
2047 6718 
2048 6718 
2049 6718 
2050 6718 
2051 6718 
2052 6718 
2053 6718 
2054 6718 
2055 6718 
2056 6718 
2057 6718 
2058 6718 
2059 6718 
2060 6718 
2061 6718 
2062 6718 
2063 6718 
2064 6718 
2065 6718 
2066 6718 
2067 6718 
2068 6718 
2069 6718 
2070 6718 
2071 6718 
2072 6718 
2073 6718 
2074 6718 
2075 6718 
2076 6718 
2077 6718 
2078 6718 
2079 6718 
2080 6718 
2081 6718 
2082 6718 
2083 6718 
2084 6718 
2085 6718 
2086 6718 
2087 6718 
2088 6718 
2089 6718 
2090 6718 
2091 6718 
2092 6718 
2093 6718 
2094 6718 
2095 6718 
2096 6718 
2097 6718 
2098 6718 
2099 6718 
2100 6718 
2101 6718 
2102 6718 
2103 6718 
2104 6718 
2105 6718 
2106 6718 
2107 6718 
2108 6718 
2109 6718 
2110 6718 
2111 6718 
2112 6718 
2113 6718 
2114 6718 
2115 6718 
2116 6718 
2117 6718 
2118 6718 
2119 6718 
2120 6718 
2121 6718 
2122 6718 
2123 6718 
2124 6718 
2125 6718 
2126 6718 
2127 6718 
2128 6718 
2129 6718 
2130 6718 
2131 6718 
2132 6718 
2133 6718 
2134 6718 
2135 6718 
2136 6718 
2137 6718 
2138 6718 
2139 6718 
2140 6718 
2141 6718 
2142 6718 
2143 6718 
2144 6718 
2145 6718 
2146 6718 
2147 6718 
2148 6718 
2149 6718 
2150 6718 
2151 6718 
2152 6718 
2153 6718 
2154 6718 
2155 6718 
2156 6718 
2157 6718 
2158 6718 
2159 6718 
2160 6718 
2161 6718 
2162 6718 
2163 6718 
2164 6718 
2165 6718 
2166 6718 
2167 6718 
2168 6718 
2169 6718 
2170 6718 
2171 6718 
2172 6718 
2173 6718 
2174 6718 
2175 6718 
2176 6718 
2177 6718 
2178 6718 
2179 6718 
2180 6718 
2181 6718 
2182 6718 
2183 6718 
2184 6718 
2185 6718 
2186 6718 
2187 6718 
2188 6718 
2189 6718 
2190 6718 
2191 6718 
2192 6718 
2193 6718 
2194 6718 
2195 6718 
2196 6718 
2197 6718 
2198 6718 
2199 6718 
2200 6718 
2201 6718 
2202 6718 
2203 6718 
2204 6718 
2205 6718 
2206 6718 
2207 6718 
2208 6718 
2209 6718 
2210 6718 
2211 6718 
2212 6718 
2213 6718 
2214 6718 
2215 6718 
2216 6718 
2217 6718 
2218 6718 
2219 6718 
2220 6718 
2221 6718 
2222 6718 
2223 6718 
2224 6718 
2225 6718 
2226 6718 
2227 6718 
2228 6718 
2229 6718 
2230 6718 
2231 6718 
2232 6718 
2233 6718 
2234 6718 
2235 6718 
2236 6718 
2237 6718 
2238 6718 
2239 6718 
2240 6718 
2241 6718 
2242 6718 
2243 6718 
2244 6718 
2245 6718 
2246 6718 
2247 6718 
2248 6718 
2249 6718 
2250 6718 
2251 6718 
2252 6718 
2253 6718 
2254 6718 
2255 6718 
2256 6718 
2257 6718 
2258 6718 
2259 6718 
2260 6718 
2261 6718 
2262 6718 
2263 6718 
2264 6718 
2265 6718 
2266 6718 
2267 6718 
2268 6718 
2269 6718 
2270 6718 
2271 6718 
2272 6718 
2273 6718 
2274 6718 
2275 6718 
2276 6718 
2277 6718 
2278 6718 
2279 6718 
2280 6718 
2281 6718 
2282 6718 
2283 6718 
2284 6718 
2285 6718 
2286 6718 
2287 6718 
2288 6718 
2289 6718 
2290 6718 
2291 6718 
2292 6718 
2293 6718 
2294 6718 
2295 6718 
2296 6718 
2297 6718 
2298 6718 
2299 6718 
2300 6718 
2301 6718 
2302 6718 
2303 6718 
2304 6718 

